NAME : dataset11
TYPE : TSP
COMMENT : 11 puntos para ejecutar
DIMENSION : 11
EDGE_WEIGHT_TYPE : EUC_2D
NODE_COORD_SECTION
1 60.6819763396 227.5285839930
2 170.2116675271 103.7818821460
3 114.4820814924 288.0597014925
4 114.7651006711 133.8476374156
5 145.0213805742 66.2487945998
6 331.7801672640 309.0800477897
7 292.8860145513 224.4922341697
8 449.4623655914 189.9679829242
9 71.7722140403 537.5848032564
10 31.5332690453 22.5878833209
11 226.2843488650 164.5789839944
EOF